0
11003 42102
11108 42373
11133 42885
11155 42712
11183 42933
11297 42853
11310 42929
11416 42983
11423 43000
11438 42057
11461 43252
14852 43187
11503 42855
11511 42106
11522 42841
11569 43136
11583 43150
11595 43148
11600 43150
11690 42686
11715 41836
11751 42814
11770 42651
11785 42884
11822 42673
11846 42660
11963 43290
11973 43026
12058 42195
12149 42477
12286 43355
12300 42433
12355 43156
12363 43189
12372 42711
12386 43334
12421 42895
12645 42973
